20
1	92	101	5	95
2	5	83	17	51
10	7	40	6	22
9	6	59	54	50
2	105	31	76	62
7	74	41	37	49
3	38	72	78	70
6	108	55	75	73
10	2	36	26	49
10	61	102	54	13
9	62	60	40	98
4	66	50	85	86
3	2	36	88	58
9	0	63	57	74
10	40	38	40	68
1	29	109	85	83
5	9	106	19	12
8	110	97	61	87
8	14	48	49	69
2	119	103	3	83
